NAME
* Written by MOSEK version 6.0.0.137
OBJSENSE
    MIN
ROWS
 N  obj
 E  c1
 E  c2
 E  c3
 E  c4
 E  c5
 E  c6
 E  c7
 E  c8
 E  c9
 E  c10
 E  c11
 E  c12
 E  c13
 E  c14
 E  c15
 E  c16
 E  c17
COLUMNS
    x1        obj       2.18e+02
    x1        c1        1
    x1        c2        6
    x1        c3        7
    x1        c4        5
    x1        c5        6
    x1        c16       7
    x1        c17       5
    x2        obj       97
    x2        c2        5
    x2        c3        4
    x2        c4        3
    x2        c5        5
    x2        c17       1
    x3        obj       1.24e+02
    x3        c2        6
    x3        c3        6
    x3        c4        5
    x3        c5        3
    x3        c17       3
    x4        obj       1.11e+02
    x4        c2        3
    x4        c3        4
    x4        c4        5
    x4        c5        3
    x4        c17       4
    x5        obj       1.35e+02
    x5        c2        3
    x5        c3        3
    x5        c4        4
    x5        c5        6
    x5        c17       7
    x6        obj       1.37e+02
    x6        c2        3
    x6        c3        6
    x6        c4        1
    x6        c5        5
    x6        c17       8
    x7        obj       1.12e+02
    x7        c2        6
    x7        c3        2
    x7        c4        4
    x7        c5        7
    x7        c17       2
    x8        obj       1.49e+02
    x8        c2        6
    x8        c3        6
    x8        c4        6
    x8        c5        4
    x8        c17       5
    x9        obj       1.36e+02
    x9        c2        4
    x9        c3        3
    x9        c4        7
    x9        c5        7
    x9        c17       2
    x10       obj       1.45e+02
    x10       c2        6
    x10       c3        5
    x10       c4        3
    x10       c5        5
    x10       c17       7
    x11       obj       1.92e+02
    x11       c6        1
    x11       c7        5
    x11       c8        6
    x11       c9        4
    x11       c10       5
    x11       c16       6
    x11       c17       5
    x12       obj       1.72e+02
    x12       c7        7
    x12       c8        7
    x12       c9        6
    x12       c10       5
    x12       c17       5
    x13       obj       99
    x13       c7        5
    x13       c8        4
    x13       c9        3
    x13       c10       3
    x13       c17       2
    x14       obj       1.5e+02
    x14       c7        6
    x14       c8        3
    x14       c9        7
    x14       c10       4
    x14       c17       4
    x15       obj       1.82e+02
    x15       c7        6
    x15       c8        5
    x15       c9        12
    x15       c10       4
    x15       c17       3
    x16       obj       1.88e+02
    x16       c7        3
    x16       c8        6
    x16       c9        7
    x16       c10       9
    x16       c17       5
    x17       obj       1.47e+02
    x17       c7        3
    x17       c8        9
    x17       c9        6
    x17       c10       5
    x17       c17       3
    x18       obj       94
    x18       c7        4
    x18       c8        1
    x18       c9        3
    x18       c10       4
    x18       c17       2
    x19       obj       1.53e+02
    x19       c7        8
    x19       c8        3
    x19       c9        6
    x19       c10       5
    x19       c17       3
    x20       obj       94
    x20       c7        4
    x20       c8        2
    x20       c9        2
    x20       c10       2
    x20       c17       5
    x21       obj       1.7e+02
    x21       c11       1
    x21       c12       6
    x21       c13       5
    x21       c14       3
    x21       c15       8
    x21       c16       9
    x21       c17       5
    x22       obj       1.26e+02
    x22       c12       5
    x22       c13       6
    x22       c14       10
    x22       c15       5
    x22       c17       7
    x23       obj       1.22e+02
    x23       c12       1
    x23       c13       10
    x23       c14       7
    x23       c15       13
    x23       c17       5
    x24       obj       86
    x24       c12       4
    x24       c13       7
    x24       c14       4
    x24       c15       6
    x24       c17       3
    x25       obj       99
    x25       c12       6
    x25       c13       7
    x25       c14       6
    x25       c15       6
    x25       c17       2
    x26       obj       100
    x26       c12       4
    x26       c13       6
    x26       c14       10
    x26       c15       3
    x26       c17       5
    x27       obj       66
    x27       c12       4
    x27       c13       5
    x27       c14       3
    x27       c15       3
    x27       c17       2
    x28       obj       84
    x28       c12       1
    x28       c13       6
    x28       c14       7
    x28       c15       9
    x28       c17       2
    x29       obj       1.17e+02
    x29       c12       5
    x29       c13       8
    x29       c14       4
    x29       c15       9
    x29       c17       5
    x30       obj       1.08e+02
    x30       c12       4
    x30       c13       8
    x30       c14       3
    x30       c15       7
    x30       c17       5
RHS
    rhs       c1        14
    rhs       c2        2.61e+02
    rhs       c3        2.61e+02
    rhs       c4        2.27e+02
    rhs       c5        2.75e+02
    rhs       c6        20
    rhs       c7        3.95e+02
    rhs       c8        3.49e+02
    rhs       c9        3.99e+02
    rhs       c10       3.37e+02
    rhs       c11       18
    rhs       c12       2.82e+02
    rhs       c13       4.34e+02
    rhs       c14       3.54e+02
    rhs       c15       4.87e+02
    rhs       c16       3.8e+02
    rhs       c17       8.07e+02
RANGES
BOUNDS
 LI bound     x1        0
 LI bound     x2        0
 LI bound     x3        0
 LI bound     x4        0
 LI bound     x5        0
 LI bound     x6        0
 FR bound     x7
 FR bound     x8
 FR bound     x9
 FR bound     x10
 LI bound     x11       0
 LI bound     x12       0
 LI bound     x13       0
 LI bound     x14       0
 LI bound     x15       0
 LI bound     x16       0
 FR bound     x17
 FR bound     x18
 FR bound     x19
 FR bound     x20
 LI bound     x21       0
 LI bound     x22       0
 LI bound     x23       0
 LI bound     x24       0
 LI bound     x25       0
 LI bound     x26       0
 FR bound     x27
 FR bound     x28
 FR bound     x29
 FR bound     x30
CSECTION      k1        0              QUAD
    x1
    x2
    x3
    x4
    x5
    x6
    x7
    x8
    x9
    x10
CSECTION      k2        0              QUAD
    x11
    x12
    x13
    x14
    x15
    x16
    x17
    x18
    x19
    x20
CSECTION      k3        0              QUAD
    x21
    x22
    x23
    x24
    x25
    x26
    x27
    x28
    x29
    x30
ENDATA
